000 000 000 000 000 001 002 001 001 001 002 002 002 001 001 001 003 002 001 001 002 001 002 001 002 004 006 005 005 005 005
000 000 000 000 000 000 001 001 000 001 001 001 001 001 001 001 002 002 001 001 001 001 001 002 002 003 004 003 005 004 006
000 000 000 000 000 000 001 001 001 000 001 001 001 001 001 001 002 002 002 001 001 001 002 001 004 003 003 004 005 005 004
000 000 000 000 000 000 000 000 000 000 000 001 001 001 002 001 002 002 002 001 001 001 002 001 006 002 002 003 004 007 004
000 000 000 000 000 000 000 000 000 000 000 000 001 001 001 001 001 002 002 002 001 002 002 001 003 002 002 006 003 007 005
000 000 000 000 000 000 000 000 000 000 000 000 000 001 000 001 001 001 001 001 002 001 001 001 002 002 005 007 004 005 002
000 000 000 000 000 000 000 001 000 000 000 000 000 000 000 001 001 001 001 001 001 001 001 001 002 002 004 006 006 004 002
000 000 000 000 000 000 000 000 000 000 000 000 000 000 001 001 001 000 001 001 001 001 000 001 002 002 004 003 003 003 002
000 000 000 000 000 000 000 000 000 000 000 000 000 000 001 001 001 001 000 000 000 000 000 001 001 002 002 001 001 003 003
000 000 000 000 000 000 000 000 000 000 001 001 000 001 000 001 000 000 000 000 000 000 000 001 001 001 001 001 001 003 002
000 000 000 000 000 000 -99 000 000 000 001 001 001 001 000 000 000 000 000 000 000 000 000 000 001 001 001 000 000 002 002
000 000 000 000 000 000 000 000 000 001 001 001 002 001 000 000 000 000 000 000 000 000 -99 000 000 000 000 000 000 001 001
000 000 000 000 000 000 000 000 000 001 001 001 002 001 001 000 000 000 000 000 000 000 -99 000 000 000 000 000 000 001 002
000 000 000 000 000 000 000 000 001 001 001 001 001 003 002 005 001 000 000 000 000 000 -99 000 000 000 000 000 000 001 002
000 000 000 000 000 000 000 000 001 001 001 000 002 002 001 012 000 000 000 000 000 000 -99 000 000 000 000 000 000 000 001
000 -99 000 000 000 000 000 001 001 001 001 000 001 001 000 006 000 000 000 000 -99 000 -99 000 000 000 000 000 000 000 000
000 000 -99 000 000 000 000 001 001 000 000 000 000 000 000 002 000 000 000 000 -99 -99 000 -99 000 000 000 000 000 000 000
000 000 000 -99 000 000 000 000 001 000 000 000 000 000 000 000 000 000 000 -99 -99 000 000 -99 000 000 000 -99 000 000 000
000 000 000 -99 000 000 000 000 001 000 000 000 000 000 000 000 000 000 000 -99 000 000 000 -99 -99 -99 -99 -99 -99 000 000
000 000 000 000 000 -99 000 000 000 000 000 000 000 000 000 000 000 000 000 -99 000 000 000 -99 -99 -99 -99 -99 -99 -99 000
000 000 000 000 000 -99 000 000 000 000 000 -99 000 000 000 000 000 000 000 000 000 000 000 -99 -99 -99 -99 -99 -99 -99 -99
000 000 000 000 000 000 -99 000 000 000 -99 -99 000 000 000 000 000 000 000 000 000 000 000 -99 -99 -99 -99 -99 -99 -99 -99
000 000 000 000 000 000 000 000 000 000 -99 -99 000 000 000 000 000 000 000 000 000 000 -99 -99 -99 -99 -99 -99 -99 -99 -99
000 000 000 000 000 000 000 000 000 000 -99 -99 000 000 000 000 000 000 000 000 000 000 -99 -99 -99 -99 -99 -99 -99 -99 -99
000 000 000 000 000 000 000 000 000 000 -99 -99 000 000 000 000 000 000 000 000 000 000 -99 -99 -99 -99 -99 -99 -99 -99 -99
000 000 000 000 000 000 000 000 000 000 -99 000 000 000 000 000 000 000 000 000 000 000 -99 -99 -99 -99 -99 -99 -99 -99 -99
000 000 000 000 000 000 000 000 000 000 000 000 000 000 000 000 000 000 000 000 000 000 000 -99 -99 -99 -99 -99 -99 -99 -99
000 000 000 000 000 000 000 000 000 000 000 000 000 000 000 000 000 000 000 000 000 000 000 -99 -99 -99 -99 -99 -99 -99 000
000 000 000 000 000 000 -99 000 000 000 000 000 000 000 000 000 000 000 000 000 000 000 -99 -99 -99 -99 -99 -99 -99 -99 000
000 000 000 000 000 000 -99 000 000 000 000 000 000 000 000 000 000 000 000 000 -99 000 -99 -99 -99 -99 -99 -99 -99 -99 000
000 000 000 000 000 -99 000 000 000 000 000 000 000 000 000 000 -99 000 000 000 000 000 -99 000 -99 -99 -99 -99 -99 -99 -99
000 000 000 000 000 000 000 000 000 -99 000 000 000 000 000 -99 -99 000 000 -99 000 000 000 000 000 000 -99 -99 -99 -99 -99
000 000 000 000 000 000 000 000 000 000 000 000 000 000 000 -99 -99 000 000 -99 -99 000 000 000 000 000 -99 -99 000 000 000
000 000 000 000 000 000 000 000 000 000 -99 -99 000 000 000 -99 000 000 000 -99 -99 000 000 000 000 000 -99 000 000 000 000
-99 000 000 000 000 000 000 000 000 000 -99 000 000 000 000 000 000 000 -99 000 000 000 000 000 000 000 000 000 000 000 000
000 000 000 000 000 000 000 000 000 000 -99 000 000 000 000 000 000 000 -99 000 000 000 000 000 000 000 000 000 000 000 000
000 000 -99 000 000 000 000 000 000 000 -99 -99 000 000 000 000 000 -99 000 000 000 000 000 000 000 000 000 000 000 000 000
000 -99 000 000 000 000 000 000 000 -99 -99 -99 000 000 000 000 000 000 000 000 000 000 000 000 000 000 000 000 000 000 -99
-99 000 000 000 000 000 -99 000 000 -99 -99 -99 000 000 000 000 000 000 -99 -99 000 000 -99 000 000 000 000 000 000 000 000
000 000 000 000 000 -99 -99 000 -99 -99 -99 -99 000 000 000 000 000 000 -99 -99 000 -99 000 000 000 000 000 000 000 000 000
000 000 000 000 000 -99 -99 -99 -99 -99 000 000 000 000 000 000 000 -99 000 000 000 000 000 000 000 000 000 -99 -99 000 000
000 000 000 000 -99 -99 -99 -99 -99 -99 000 000 000 000 000 000 000 000 000 000 000 000 000 000 000 000 -99 -99 000 000 000
000 000 000 -99 -99 -99 -99 -99 -99 -99 000 000 000 000 -99 000 000 000 000 000 000 000 000 000 000 000 -99 -99 000 -99 -99
000 -99 -99 -99 -99 -99 -99 -99 -99 -99 -99 000 000 000 000 000 -99 000 000 000 000 000 000 -99 000 000 -99 -99 000 -99 -99
000 -99 -99 -99 -99 -99 -99 -99 -99 000 000 000 000 000 000 000 000 000 000 000 000 000 -99 000 000 -99 000 000 000 -99 000
000 -99 -99 -99 -99 -99 -99 -99 -99 -99 -99 000 000 000 000 -99 000 000 000 000 000 -99 -99 000 000 -99 000 000 -99 -99 000
000 -99 -99 -99 -99 -99 -99 -99 -99 -99 000 000 000 000 000 -99 -99 -99 000 000 000 000 -99 -99 000 -99 000 -99 -99 -99 -99
000 -99 -99 -99 -99 -99 -99 -99 -99 -99 -99 000 000 -99 -99 -99 -99 000 000 000 000 000 -99 -99 -99 -99 000 -99 -99 -99 -99
000 -99 -99 -99 -99 -99 -99 -99 -99 -99 -99 000 -99 000 -99 -99 -99 000 000 000 000 -99 000 -99 -99 -99 000 -99 -99 -99 -99
-99 -99 -99 -99 -99 -99 -99 -99 -99 -99 -99 -99 -99 000 000 -99 -99 000 000 000 000 000 -99 -99 -99 -99 000 -99 -99 -99 -99
-99 -99 -99 -99 -99 -99 -99 -99 -99 -99 -99 -99 -99 -99 -99 -99 -99 -99 000 000 000 000 -99 -99 -99 000 -99 -99 -99 -99 -99
-99 -99 -99 -99 -99 -99 -99 -99 -99 -99 -99 -99 -99 -99 -99 -99 -99 000 000 000 000 -99 -99 -99 000 000 -99 -99 -99 -99 -99
-99 -99 -99 -99 -99 -99 -99 -99 000 000 -99 -99 -99 -99 -99 -99 -99 000 000 000 000 -99 -99 -99 000 -99 -99 -99 -99 -99 -99
-99 -99 -99 -99 -99 -99 -99 000 -99 -99 -99 -99 -99 -99 -99 -99 -99 000 000 -99 -99 -99 -99 -99 -99 -99 -99 -99 -99 -99 -99
-99 -99 -99 -99 -99 -99 -99 000 -99 -99 -99 -99 -99 -99 -99 -99 -99 000 000 -99 -99 -99 -99 -99 -99 -99 -99 -99 -99 -99 000
